
Gurobi 13.0.2 (win64) logging started Thu Jul 23 04:29:30 2026

Set parameter LogFile to value "E:\codes\ExactEBRP\results\gf_cplex_equivalent_gurobi_replica_round28\runs\stage1__V12_M1__c3_replica__300s\external\native_logs\R.1.0.0.1.0.1.1.1.0.0_terminal_mip.gurobi.log"
Gurobi Optimizer version 13.0.2 build v13.0.2rc1 (win64 - Windows 10.0 (19045.2))

CPU model: 12th Gen Intel(R) Core(TM) i7-12700KF, instruction set [SSE2|AVX|AVX2]
Thread count: 12 physical cores, 20 logical processors, using up to 1 threads

Non-default parameters:
TimeLimit  4.2441272899999973e+01
MIPGap  0
MIPGapAbs  0
LogToConsole  0
Threads  1

Optimize a model with 6225 rows, 648 columns and 59365 nonzeros (Min)
Model fingerprint: 0x1ec6d6b3
Model has 13 linear objective coefficients
Variable types: 347 continuous, 301 integer (253 binary)
Coefficient statistics:
  Matrix range     [2e-03, 1e+05]
  Objective range  [2e-03, 1e+00]
  Bounds range     [1e-01, 8e+01]
  RHS range        [3e-02, 1e+06]

Presolve removed 748 rows and 27 columns
Presolve time: 0.15s
Presolved: 5477 rows, 621 columns, 58707 nonzeros
Variable types: 321 continuous, 300 integer (252 binary)

Root relaxation: objective 3.249853e-01, 942 iterations, 0.05 seconds (0.16 work units)

    Nodes    |    Current Node    |     Objective Bounds      |     Work
 Expl Unexpl |  Obj  Depth IntInf | Incumbent    BestBd   Gap | It/Node Time

     0     0    0.32499    0   88          -    0.32499      -     -    0s
     0     0    0.32827    0   70          -    0.32827      -     -    0s
     0     0    0.32857    0   71          -    0.32857      -     -    0s
     0     0    0.32928    0   87          -    0.32928      -     -    0s
     0     0    0.32972    0  107          -    0.32972      -     -    0s
     0     0    0.33057    0   93          -    0.33057      -     -    1s
     0     0    0.33065    0   88          -    0.33065      -     -    1s
     0     0    0.33096    0  110          -    0.33096      -     -    1s
     0     0    0.33128    0  111          -    0.33128      -     -    1s
     0     0    0.33149    0   92          -    0.33149      -     -    1s
     0     0    0.33162    0  113          -    0.33162      -     -    1s
     0     0    0.33162    0  115          -    0.33162      -     -    1s
     0     0    0.33167    0  115          -    0.33167      -     -    1s
     0     0    0.33167    0  115          -    0.33167      -     -    2s
     0     0    0.33167    0  112          -    0.33167      -     -    2s
     0     0    0.33179    0  121          -    0.33179      -     -    2s
     0     0    0.33181    0  116          -    0.33181      -     -    2s
     0     0    0.33191    0  115          -    0.33191      -     -    2s
     0     0    0.33191    0  113          -    0.33191      -     -    2s
     0     0    0.33193    0  113          -    0.33193      -     -    2s
     0     0    0.33195    0  113          -    0.33195      -     -    2s
     0     0    0.33195    0  113          -    0.33195      -     -    3s
     0     0    0.33199    0  113          -    0.33199      -     -    3s
     0     0    0.33199    0  113          -    0.33199      -     -    3s
     0     0    0.33199    0  113          -    0.33199      -     -    3s
     0     0    0.33199    0  113          -    0.33199      -     -    3s
     0     2    0.33201    0  113          -    0.33201      -     -    4s

Cutting planes:
  Learned: 3
  Cover: 18
  Implied bound: 32
  Clique: 24
  MIR: 30
  Flow cover: 26
  GUB cover: 3
  Zero half: 3
  Network: 3
  RLT: 8
  Relax-and-lift: 8
  BQP: 5
  PSD: 1

Explored 168 nodes (9631 simplex iterations) in 4.94 seconds (6.50 work units)
Thread count was 1 (of 20 available processors)

Solution count 0

Model is infeasible
Best objective -, best bound -, gap -

User-callback calls 3216, time in user-callback 0.00 sec
